NAME: ACTUAL_TOURS/amz1617
TYPE: TOUR
COMMENT: RouteID_adf9599a-01ce-4073-9384-d85dc44104e7
DIMENSION: 169
TOUR_SECTION
31
102
126
100
32
87
61
160
10
28
47
63
109
3
90
162
143
60
99
115
1
14
67
9
92
120
59
127
21
108
159
164
44
128
33
113
145
46
117
97
64
148
141
58
112
12
25
107
15
23
34
152
65
19
150
125
151
11
147
156
80
6
41
51
123
62
134
93
144
121
56
26
69
140
75
38
71
20
82
35
130
168
36
13
57
136
81
106
18
48
124
101
72
98
105
166
139
158
96
86
91
43
137
52
146
135
118
66
132
77
111
2
50
157
85
7
78
22
114
169
167
4
24
30
161
84
79
94
39
29
149
42
68
153
88
89
142
95
54
155
49
122
131
138
119
73
70
45
154
104
83
133
40
76
17
163
74
129
165
55
27
16
110
103
37
53
8
116
5
-1
EOF
